3 32 1 10
4 9 13 9 20 1 2 20 14 1 12 6 15 4 7 11 6 1 6 5 17 9 17 19 17 14 6 3 8 17 6 16 
5.49 4.8 1.88 5.6 5.94 6.87 6.34 4.86 4.27 3.78 1.4 0.27 2.1 7.43 4.54 2.56 5.88 0.18 1.61 0.51 5.19 3.12 7.27 7.67 5.86 2.15 7.11 1.11 7.67 4.2 2.2 1.1 
4 4 4 4 4 4 4 4 4 4 4 4 4 4 4 4 4 4 4 4 4 4 4 4 4 4 4 4 4 4 4 4 
1.66 4.66 7.2 2.02 3.12 4.77 0.86 3.89 4.99 4.56 3.83 4.44 1.54 7.5 7.33 1.82 3.84 5.49 7.93 2.87 2.25 1.41 0.48 2.63 7.26 1.21 2.37 1.72 7.39 4.3 3.88 1.34 
1 1 1 1 1 1 1 1 1 1 1 1 1 1 1 1 1 1 1 1 1 1 1 1 1 1 1 1 1 1 1 1 
1 1 1 1 1 1 1 1 1 1 1 1 1 1 1 1 1 1 1 1 1 1 1 1 1 1 1 1 1 1 1 1 
1 1 1 1 1 1 1 1 1 1 1 1 1 1 1 1 1 1 1 1 1 1 1 1 1 1 1 1 1 1 1 1 
0.01 0.01 0.01 0.01 0.01 0.01 0.01 0.01 0.01 0.01 0.01 0.01 0.01 0.01 0.01 0.01 0.01 0.01 0.01 0.01 0.01 0.01 0.01 0.01 0.01 0.01 0.01 0.01 0.01 0.01 0.01 0.01 
0.02 0.02 0.02 0.02 0.02 0.02 0.02 0.02 0.02 0.02 0.02 0.02 0.02 0.02 0.02 0.02 0.02 0.02 0.02 0.02 0.02 0.02 0.02 0.02 0.02 0.02 0.02 0.02 0.02 0.02 0.02 0.02 
1 1 1 1 1 1 1 1 1 1 1 1 1 1 1 1 1 1 1 1 1 1 1 1 1 1 1 1 1 1 1 1 
